nK = 484;
nT = 4;
nI = 7;
L = 29;
TT = 149;
np = 1;
nc = 3;
b = [31, 27, 56, 55, 66, 30, 68];
d = [125, 59, 110, 121, 132, 67, 116];
m = [1.8, 2.3, 1.4, 1.8, 1.7, 1.9, 1.6];
pt = [0.29, 0.3, 0.31, 0.28];
st = [15.66, 18, 12.71, 13.44];
arc = {<1, 0, 1, 1, 0, 0, 0, [1, 1, 1, 1]>, <2, 1, 2, 1, 0, 0, 0, [1, 1, 1, 1]>, <3, 2, 3, 1, 0, 0, 0, [1, 1, 1, 1]>, <4, 3, 4, 1, 0, 0, 0, [1, 1, 1, 1]>, <5, 4, 5, 1, 0, 0, 0, [1, 1, 1, 1]>, <6, 5, 6, 1, 0, 0, 0, [1, 1, 1, 1]>, <7, 6, 7, 1, 0, 0, 0, [1, 1, 1, 1]>, <8, 7, 8, 1, 0, 0, 0, [1, 1, 1, 1]>, <9, 8, 9, 1, 0, 0, 0, [1, 1, 1, 1]>, <10, 9, 10, 1, 0, 0, 0, [1, 1, 1, 1]>, <11, 10, 11, 1, 0, 0, 0, [1, 1, 1, 1]>, <12, 11, 12, 1, 0, 0, 0, [1, 1, 1, 1]>, <13, 12, 13, 1, 0, 0, 0, [1, 1, 1, 1]>, <14, 13, 14, 1, 0, 0, 0, [1, 1, 1, 1]>, <15, 14, 15, 1, 0, 0, 0, [1, 1, 1, 1]>, <16, 15, 16, 1, 0, 0, 0, [1, 1, 1, 1]>, <17, 16, 17, 1, 0, 0, 0, [1, 1, 1, 1]>, <18, 17, 18, 1, 0, 0, 0, [1, 1, 1, 1]>, <19, 18, 19, 1, 0, 0, 0, [1, 1, 1, 1]>, <20, 19, 20, 1, 0, 0, 0, [1, 1, 1, 1]>, <21, 20, 21, 1, 0, 0, 0, [1, 1, 1, 1]>, <22, 21, 22, 1, 0, 0, 0, [1, 1, 1, 1]>, <23, 22, 23, 1, 0, 0, 0, [1, 1, 1, 1]>, <24, 23, 24, 1, 0, 0, 0, [1, 1, 1, 1]>, <25, 24, 25, 1, 0, 0, 0, [1, 1, 1, 1]>, <26, 25, 26, 1, 0, 0, 0, [1, 1, 1, 1]>, <27, 26, 27, 1, 0, 0, 0, [1, 1, 1, 1]>, <28, 27, 28, 1, 0, 0, 0, [1, 1, 1, 1]>, <29, 28, 29, 1, 0, 0, 0, [1, 1, 1, 1]>, <30, 4, 12, 8, 1, 1, 0, [0, 0, 1, 1]>, <31, 5, 13, 8, 1, 1, 0, [0, 0, 1, 1]>, <32, 11, 19, 8, 1, 1, 0, [0, 0, 1, 1]>, <33, 12, 20, 8, 1, 1, 0, [0, 0, 1, 1]>, <34, 16, 24, 8, 1, 1, 0, [0, 0, 1, 1]>, <35, 17, 25, 8, 1, 1, 0, [0, 0, 1, 1]>, <36, 18, 26, 8, 1, 1, 0, [0, 0, 1, 1]>, <37, 19, 27, 8, 1, 1, 0, [0, 0, 1, 1]>, <38, 20, 28, 8, 1, 1, 0, [0, 0, 1, 1]>, <39, 4, 12, 8, 2, 0, 1, [0, 0, 1, 1]>, <40, 5, 13, 8, 2, 0, 1, [0, 0, 1, 1]>, <41, 11, 19, 8, 2, 0, 1, [0, 0, 1, 1]>, <42, 12, 20, 8, 2, 0, 1, [0, 0, 1, 1]>, <43, 16, 24, 8, 2, 0, 1, [0, 0, 1, 1]>, <44, 17, 25, 8, 2, 0, 1, [0, 0, 1, 1]>, <45, 18, 26, 8, 2, 0, 1, [0, 0, 1, 1]>, <46, 19, 27, 8, 2, 0, 1, [0, 0, 1, 1]>, <47, 20, 28, 8, 2, 0, 1, [0, 0, 1, 1]>, <48, 1, 12, 11, 3, 0, 0, [0, 0, 1, 1]>, <49, 2, 13, 11, 3, 0, 0, [0, 0, 1, 1]>, <50, 3, 14, 11, 3, 0, 0, [0, 0, 1, 1]>, <51, 4, 15, 11, 3, 0, 0, [0, 0, 1, 1]>, <52, 5, 16, 11, 3, 0, 0, [0, 0, 1, 1]>, <53, 9, 20, 11, 3, 0, 0, [0, 0, 1, 1]>, <54, 10, 21, 11, 3, 0, 0, [0, 0, 1, 1]>, <55, 11, 22, 11, 3, 0, 0, [0, 0, 1, 1]>, <56, 12, 23, 11, 3, 0, 0, [0, 0, 1, 1]>, <57, 13, 24, 11, 3, 0, 0, [0, 0, 1, 1]>, <58, 14, 25, 11, 3, 0, 0, [0, 0, 1, 1]>, <59, 15, 26, 11, 3, 0, 0, [0, 0, 1, 1]>, <60, 16, 27, 11, 3, 0, 0, [0, 0, 1, 1]>, <61, 17, 28, 11, 3, 0, 0, [0, 0, 1, 1]>, <62, 18, 29, 11, 3, 0, 0, [0, 0, 1, 1]>, <63, 3, 12, 9, 4, 0, 0, [0, 1, 1, 0]>, <64, 4, 13, 9, 4, 0, 0, [0, 1, 1, 0]>, <65, 5, 14, 9, 4, 0, 0, [0, 1, 1, 0]>, <66, 11, 20, 9, 4, 0, 0, [0, 1, 1, 0]>, <67, 12, 21, 9, 4, 0, 0, [0, 1, 1, 0]>, <68, 15, 24, 9, 4, 0, 0, [0, 1, 1, 0]>, <69, 16, 25, 9, 4, 0, 0, [0, 1, 1, 0]>, <70, 17, 26, 9, 4, 0, 0, [0, 1, 1, 0]>, <71, 18, 27, 9, 4, 0, 0, [0, 1, 1, 0]>, <72, 19, 28, 9, 4, 0, 0, [0, 1, 1, 0]>, <73, 20, 29, 9, 4, 0, 0, [0, 1, 1, 0]>, <74, 4, 12, 8, 5, 1, 0, [0, 0, 1, 1]>, <75, 5, 13, 8, 5, 1, 0, [0, 0, 1, 1]>, <76, 11, 19, 8, 5, 1, 0, [0, 0, 1, 1]>, <77, 12, 20, 8, 5, 1, 0, [0, 0, 1, 1]>, <78, 16, 24, 8, 5, 1, 0, [0, 0, 1, 1]>, <79, 17, 25, 8, 5, 1, 0, [0, 0, 1, 1]>, <80, 18, 26, 8, 5, 1, 0, [0, 0, 1, 1]>, <81, 19, 27, 8, 5, 1, 0, [0, 0, 1, 1]>, <82, 20, 28, 8, 5, 1, 0, [0, 0, 1, 1]>, <83, 0, 12, 12, 6, 1, 0, [1, 1, 0, 0]>, <84, 1, 13, 12, 6, 1, 0, [1, 1, 0, 0]>, <85, 2, 14, 12, 6, 1, 0, [1, 1, 0, 0]>, <86, 3, 15, 12, 6, 1, 0, [1, 1, 0, 0]>, <87, 4, 16, 12, 6, 1, 0, [1, 1, 0, 0]>, <88, 5, 17, 12, 6, 1, 0, [1, 1, 0, 0]>, <89, 8, 20, 12, 6, 1, 0, [1, 1, 0, 0]>, <90, 9, 21, 12, 6, 1, 0, [1, 1, 0, 0]>, <91, 10, 22, 12, 6, 1, 0, [1, 1, 0, 0]>, <92, 11, 23, 12, 6, 1, 0, [1, 1, 0, 0]>, <93, 12, 24, 12, 6, 1, 0, [1, 1, 0, 0]>, <94, 13, 25, 12, 6, 1, 0, [1, 1, 0, 0]>, <95, 14, 26, 12, 6, 1, 0, [1, 1, 0, 0]>, <96, 15, 27, 12, 6, 1, 0, [1, 1, 0, 0]>, <97, 16, 28, 12, 6, 1, 0, [1, 1, 0, 0]>, <98, 17, 29, 12, 6, 1, 0, [1, 1, 0, 0]>, <99, 2, 12, 10, 7, 1, 0, [0, 0, 1, 1]>, <100, 3, 13, 10, 7, 1, 0, [0, 0, 1, 1]>, <101, 4, 14, 10, 7, 1, 0, [0, 0, 1, 1]>, <102, 5, 15, 10, 7, 1, 0, [0, 0, 1, 1]>, <103, 10, 20, 10, 7, 1, 0, [0, 0, 1, 1]>, <104, 11, 21, 10, 7, 1, 0, [0, 0, 1, 1]>, <105, 12, 22, 10, 7, 1, 0, [0, 0, 1, 1]>, <106, 14, 24, 10, 7, 1, 0, [0, 0, 1, 1]>, <107, 15, 25, 10, 7, 1, 0, [0, 0, 1, 1]>, <108, 16, 26, 10, 7, 1, 0, [0, 0, 1, 1]>, <109, 17, 27, 10, 7, 1, 0, [0, 0, 1, 1]>, <110, 18, 28, 10, 7, 1, 0, [0, 0, 1, 1]>, <111, 19, 29, 10, 7, 1, 0, [0, 0, 1, 1]>};
